
Route #1: 32 36 67 29 42 53 38 40 50 39 63 
Route #2: 19 55 23 11 3 65 43 
Route #3: 31 37 41 51 61 8 60 
Route #4: 4 64 35 47 27 66 5 
Route #5: 2 22 49 57 26 
Route #6: 25 44 34 45 12 59 9 48 
Route #7: 1 56 33 52 20 62 14 54 21 58 24 28 6 
Route #8: 15 17 16 30 46 13 7 
Route #9: 10 18 
cost 1749.58
total time is 7.1